NAME : LRC2_6_3
TYPE : PDPTW
DIMENSION : 150
EDGE_WEIGHT_TYPE : EXACT_2D
NODE_COORD_SECTION
1 1 0
2 150 0
3 0 0
4 -20 3467
5 0 2
6 0 4769
7 3 199
8 4734 10
9 61 84
10 10 330
11 103 20
12 0 343
13 10 224
14 213 7
15 0 4691
16 8 230
17 1642 10
18 55 68
19 10 248
20 180 27
21 0 92
22 11 0
23 563 12
24 0 4610
25 13 257
26 772 10
27 57 155
28 10 0
29 26 25
30 0 512
31 -30 0
32 0 17
33 0 4715
34 18 89
35 4706 10
36 84 231
37 10 580
38 240 -18
39 264 0
40 -30 0
41 0 22
42 0 4728
43 23 180
44 4760 10
45 240 73
46 10 0
47 265 20
48 0 111
49 20 361
50 262 27
51 0 4673
52 28 160
53 4770 10
54 289 130
55 10 291
56 255 -10
57 194 0
58 38 1408
59 584 32
60 2328 2448
61 33 115
62 291 10
63 250 228
64 10 428
65 89 -11
66 549 0
67 20 270
68 501 37
69 0 4780
70 38 159
71 4663 10
72 47 277
73 10 420
74 269 17
75 0 313
76 30 893
77 538 42
78 0 4677
79 43 74
80 3338 10
81 140 140
82 10 0
83 241 2
84 0 68
85 20 333
86 195 47
87 0 4746
88 48 136
89 4730 10
90 250 124
91 10 574
92 299 -10
93 218 0
94 -30 851
95 0 52
96 413 533
97 53 212
98 4706 10
99 259 59
100 10 0
101 104 21
102 0 201
103 -20 0
104 0 57
105 0 4692
106 58 57
107 963 10
108 232 121
109 10 400
110 132 -10
111 525 0
112 24 1483
113 3 62
114 0 4774
115 63 143
116 4774 10
117 248 41
118 10 0
119 263 -10
120 599 0
121 20 355
122 499 67
123 453 573
124 68 259
125 4672 10
126 38 139
127 10 0
128 41 -20
129 401 0
130 10 0
131 356 72
132 0 4670
133 73 102
134 3494 10
135 43 286
136 10 33
137 160 -10
138 526 0
139 13 438
140 124 77
141 0 4685
142 78 88
143 2656 10
144 122 127
145 10 0
146 63 10
147 0 271
148 16 330
149 283 82
150 0 4680
PICKUP_AND_DELIVERY_SECTION
1 0 0 0 0 0 0
2 0 0 0 0 4823 0
3 0 0 0 0 0 125
4 0 0 0 0 10 10
5 0 0 0 0 107 107
6 0 0 0 0 0 0
7 0 0 0 0 -24 -24
8 0 0 0 0 0 0
9 0 0 0 0 0 0
10 0 0 0 0 5 0
11 0 0 0 0 273 273
12 0 0 0 0 143 143
13 0 0 0 0 10 10
14 0 0 0 0 141 141
15 0 0 0 0 0 0
16 0 0 0 0 21 21
17 0 0 0 0 286 0
18 0 0 0 0 0 0
19 0 0 0 0 10 0
20 0 0 0 0 4730 0
21 0 0 0 0 159 159
22 0 0 0 0 10 10
23 0 0 0 0 4 4
24 0 0 0 0 0 0
25 0 0 0 0 -10 -10
26 0 0 0 0 0 0
27 0 0 0 0 0 0
28 0 0 0 0 0 15
29 0 0 0 0 2379 2379
30 0 0 0 0 231 231
31 0 0 0 0 10 10
32 0 0 0 0 132 132
33 0 0 0 0 240 240
34 0 0 0 0 -12 -12
35 0 0 0 0 0 0
36 0 0 0 0 0 0
37 0 0 0 0 20 0
38 0 0 0 0 2221 2221
39 0 0 0 0 110 110
40 0 0 0 0 10 10
41 0 0 0 0 74 74
42 0 0 0 0 373 373
43 0 0 0 0 -6 -6
44 0 0 0 0 0 0
45 0 0 0 0 0 0
46 0 0 0 0 25 25
47 0 0 0 0 775 775
48 0 0 0 0 134 134
49 0 0 0 0 10 10
50 0 0 0 0 59 59
51 0 0 0 0 54 54
52 0 0 0 0 -30 -30
53 0 0 0 0 0 0
54 0 0 0 0 1318 1318
55 0 0 0 0 30 0
56 0 0 0 0 1082 1082
57 0 0 0 0 234 234
58 0 0 0 0 10 10
59 0 0 0 0 208 208
60 0 0 0 0 138 138
61 0 0 0 0 10 10
62 0 0 0 0 74 0
63 0 0 0 0 3107 3107
64 0 0 0 0 35 0
65 0 0 0 0 3425 3425
66 0 0 0 0 105 105
67 0 0 0 0 10 10
68 0 0 0 0 183 183
69 0 0 0 0 96 96
70 0 0 0 0 -20 -20
71 0 0 0 0 0 0
72 0 0 0 0 594 594
73 0 0 0 0 40 0
74 0 0 0 0 1903 1903
75 0 0 0 0 212 212
76 0 0 0 0 10 10
77 0 0 0 0 149 149
78 0 0 0 0 0 0
79 0 0 0 0 24 24
80 0 0 0 0 509 0
81 0 0 0 0 0 0
82 0 0 0 0 45 45
83 0 0 0 0 4722 0
84 0 0 0 0 222 222
85 0 0 0 0 10 10
86 0 0 0 0 124 124
87 0 0 0 0 0 0
88 0 0 0 0 19 19
89 0 0 0 0 119 0
90 0 0 0 0 0 0
91 0 0 0 0 50 0
92 0 0 0 0 1626 1626
93 0 0 0 0 258 258
94 0 0 0 0 10 10
95 0 0 0 0 47 47
96 0 0 0 0 0 0
97 0 0 0 0 20 20
98 0 0 0 0 272 0
99 0 0 0 0 744 744
100 0 0 0 0 55 55
101 0 0 0 0 397 397
102 0 0 0 0 77 77
103 0 0 0 0 10 10
104 0 0 0 0 45 45
105 0 0 0 0 321 321
106 0 0 0 0 23 23
107 0 0 0 0 72 0
108 0 0 0 0 0 0
109 0 0 0 0 60 0
110 0 0 0 0 4707 0
111 0 0 0 0 18 18
112 0 0 0 0 10 10
113 0 0 0 0 113 113
114 0 0 0 0 0 0
115 0 0 0 0 -20 -20
116 0 0 0 0 0 0
117 0 0 0 0 0 0
118 0 0 0 0 65 65
119 0 0 0 0 4632 0
120 0 0 0 0 109 109
121 0 0 0 0 10 10
122 0 0 0 0 71 71
123 0 0 0 0 383 383
124 0 0 0 0 -2 -2
125 0 0 0 0 0 0
126 0 0 0 0 1348 1348
127 0 0 0 0 70 70
128 0 0 0 0 1497 1497
129 0 0 0 0 255 255
130 0 0 0 0 10 10
131 0 0 0 0 122 122
132 0 0 0 0 58 58
133 0 0 0 0 -25 -25
134 0 0 0 0 0 0
135 0 0 0 0 673 673
136 0 0 0 0 75 0
137 0 0 0 0 463 463
138 0 0 0 0 172 172
139 0 0 0 0 10 10
140 0 0 0 0 22 22
141 0 0 0 0 349 349
142 0 0 0 0 -21 -21
143 0 0 0 0 0 0
144 0 0 0 0 0 0
145 0 0 0 0 80 80
146 0 0 0 0 753 753
147 0 0 0 0 53 53
148 0 0 0 0 10 10
149 0 0 0 0 281 281
150 0 0 0 0 0 0
DEPOT_SECTION
1 
-1
EOF
